NAME : mr53
COMMENT : 53-city problem (DISC)
TYPE : TSP
DIMENSION : 53
EDGE_WEIGHT_TYPE : EUC_2D
NODE_COORD_SECTION
1 85 6
2 57 86
3 46 70
4 36 7
5 59 40
6 54 54
7 83 17
8 27 95
9 48 4
10 35 74
11 14 13
12 26 37
13 5 5
14 40 64
15 38 73
16 56 70
17 90 84
18 17 95
19 41 83
20 66 71
21 57 55
22 57 64
23 53 90
24 61 88
25 13 64
26 19 7
27 45 69
28 87 48
29 90 72
30 23 22
31 47 71
32 48 90
33 43 68
34 98 20
35 83 55
36 71 88
37 31 58
38 15 33
39 95 56
40 78 18
41 25 68
42 72 87
43 27 49
44 87 36
45 24 95
46 23 73
47 3 31
48 50 27
49 73 60
50 35 27
51 26 58
52 82 54
53 83 38
EOF
